225
294
31
96
266
81
264
340
51
360
150
94
360
125
344
288
294
234
28
90
70
208
328
186
192
222
234
132
66
50
320
87
414
324
200
378
31
392
114
216
450
34
204
328
60
329
74
182
43
288
450
78
280
368
105
156
168
310
480
259
135
352
264
102
360
116
376
216
100
43
256
343
342
56
45
102
260
369
30
432
222
156
352
297
50
39
87
230
175
100
126
124
343
114
81
88
238
510
40
210
470
252
234
258
256
250
273
224
45
245
416
246
62
336
370
54
176
330
300
120
58
276
36
50
294
160
147
266
56
45
272
51
164
120
282
37
234
215
99
250
156
56
460
315
208
420
93
240
342
135
396
68
204
40
29
235
72
175
430
64
49
234
112
45
105
104
246
60
336
296
156
396
231
250
280
116
184
350
150
168
155
441
76
54
45
204
51
82
150
376
252
130
129
256
450
390
196
92
210
416
164
